units			metal	
atom_style		atomic
#timestep 		0.001
dimension 	        2	
boundary		p p p
read_data       SiC.lammpstrj
mass			1 28.0855
mass			2 12.0107 

velocity	all create 50.0 12345

pair_style tersoff
pair_coeff * * SiC.tersoff Si C

thermo_style custom step temp etotal  xlo xhi ylo yhi zlo zhi vol
#========================================RELAX================================================
fix			1 all npt temp 50.0 50.0 0.1 x 0.0 0.0 1000.0 y 0.0 0.0 1000.0 couple xy
dump				1 all xyz 100000 relax50.xyz
thermo				100000
run				100000
undump				1
unfix				1
#=============================================================================================

#==================================HEATING at 2x10^11 K/s=====================================
#*********************************************************************************************
# DELTA_T  = 6500K-50K = 6450K
# DURATION = 6450K : 2x10^11 K/s = 3225x10^-11 s
# STEPS    = 3225x10^-11 s : 0,001 ps = 3225x10^-11 : 10^-15 = 3225x10^4 MDs
# thermo output : each 5K
# DELTA_T = 5K
# DURATION = 5K : 2x10^11 K/s = 25x10^-12 s
# STEPS    = 25x10^-12 s : 0,001 ps = 25x10^-12 : 10^-15 = 25000 MDs
# dump output : each 50K
# DELTA_T = 50K
# DURATION = 50K : 2x10^11 K/s = 25x10^-11 s
# STEPS    = 25x10^-11 s : 0,001 ps = 25x10^-11 : 10^-15 = 250000 MDs
#*********************************************************************************************
fix			1 all npt temp 50.0 6500.0 0.1 x 0.0 0.0 1000.0 y 0.0 0.0 1000.0 couple xy
dump				1 all xyz 250000 liquid.xyz
thermo				25000
run				32250000
undump				1
unfix				1
#=============================================================================================

#========================================RELAX================================================
fix			1 all npt temp 6500.0 6500.0 0.1 x 0.0 0.0 1000.0 y 0.0 0.0 1000.0 couple xy
dump				1 all xyz 100000 relax6500.xyz
thermo				100000
run				100000
undump				1
unfix				1
#=============================================================================================

#==================================COOLING at 2x10^10 K/s=====================================
#*********************************************************************************************
# DELTA_T  = 6500K-300K = 6200K
# DURATION = 6200K : 2x10^10 K/s = 3100x10^-10 s
# STEPS    = 3100x10^-10 s : 0,001 ps = 3100x10^-10 : 10^-15 = 3100x10^5 MDs
# thermo output : each 5K
# DELTA_T = 5K
# DURATION = 5K : 2x10^10 K/s = 25x10^-11 s
# STEPS    = 25x10^-11 s : 0,001 ps = 25x10^-11 : 10^-15 = 25x10^4 MDs
# dump output : each 50K
# DELTA_T = 50K
# DURATION = 50K : 2x10^10 K/s = 25x10^-10 s
# STEPS    = 25x10^-10 s : 0,001 ps = 25x10^-10 : 10^-15 = 25x10^5 MDs
#*********************************************************************************************
fix			1 all npt temp 6500.0 300.0 0.1 x 0.0 0.0 1000.0 y 0.0 0.0 1000.0 couple xy
dump				1 all xyz 2500000 cooling.xyz
thermo				250000 
run				310000000
undump				1
unfix				1
#=============================================================================================

#========================================RELAX================================================
fix			1 all npt temp 300.0 300.0 0.1 x 0.0 0.0 1000.0 y 0.0 0.0 1000.0 couple xy
dump				1 all xyz 100000 relax300.xyz
thermo				100000
run				100000
undump				1
unfix				1
#=============================================================================================