units			metal	
atom_style		atomic
timestep 		0.001
dimension 	        2	
boundary		p p p
# ---------- Create Atoms --------------------- 
lattice custom 5.019 a1 1  0  0  a2 -0.5 0.867 0 a3 0.0 0.0 0.5 &
basis 0 0.71209872 0 & 
basis 0 0 0 &
basis 0.71209871 0 0 &
basis 0 0.50002013 0 &
basis 0.14395064 0.14395064 0 &
basis 0.5 0.3333736 0
region  box block 0 10 0 10 -0.5 0.5
create_box 2 box
create_atoms 1 box basis 1 2 basis 2 2 basis 3 2 basis 4 1 basis 5 2 basis 6 1
mass			1 28.0855
mass			2 12.0107 
velocity	all create 50.0 12345
pair_style tersoff
pair_coeff * * SiC.tersoff Si C
thermo_style custom step temp etotal  xlo xhi ylo yhi zlo zhi
#---------------relax------------------------
fix			1 all npt temp 50.0 50.0 0.001 x 0.0 0.0 1000.0 &
y 0.0 0.0 1000.0 couple xy 
dump				1 all xyz 50000 relax.xyz
thermo				10000
run				100000
undump				1
unfix				1